-356.0 4.0 5.0 2.0 8.0 5.0 4.0 0.0 8.0 7.0 2.0 3.0 4.0 0.0 1.0 5.0 9.0 5.0 0.0 0.0 3.0 8.0 7.0 5.0 4.0 3.0 9.0 0.0 0.0 5.0 4.0 10.0 3.0 1.0 10.0 9.0 6.0 5.0 7.0 1.0 2.0 10.0 10.0 1.0 5.0 8.0 8.0 1.0 5.0 0.0 7.0 3.0 5.0 4.0 4.0 1.0 8.0 3.0 1.0 0.0 5.0 4.0 2.0 1.0 2.0 5.0 4.0 6.0 8.0 7.0 10.0 6.0 7.0 7.0 5.0 5.0 1.0 2.0 7.0 1.0 3.0 0.0 0.0 0.0 
4.0 -364.0 5.0 4.0 3.0 3.0 6.0 2.0 3.0 7.0 2.0 8.0 8.0 10.0 5.0 1.0 1.0 4.0 6.0 1.0 8.0 8.0 8.0 3.0 3.0 4.0 7.0 9.0 7.0 4.0 4.0 6.0 5.0 7.0 10.0 2.0 2.0 1.0 2.0 6.0 9.0 6.0 1.0 2.0 1.0 1.0 6.0 10.0 10.0 2.0 8.0 1.0 9.0 4.0 5.0 9.0 8.0 10.0 1.0 2.0 6.0 10.0 4.0 8.0 9.0 7.0 9.0 7.0 3.0 7.0 0.0 0.0 0.0 0.0 0.0 0.0 0.0 0.0 0.0 0.0 0.0 0.0 0.0 0.0 
5.0 5.0 -409.0 8.0 3.0 9.0 5.0 8.0 2.0 5.0 7.0 10.0 5.0 6.0 1.0 0.0 4.0 2.0 7.0 1.0 6.0 6.0 8.0 10.0 7.0 1.0 9.0 8.0 0.0 6.0 6.0 0.0 0.0 5.0 6.0 3.0 9.0 1.0 9.0 0.0 2.0 3.0 9.0 7.0 7.0 4.0 4.0 3.0 6.0 1.0 4.0 7.0 5.0 0.0 5.0 9.0 0.0 5.0 3.0 8.0 5.0 1.0 2.0 0.0 3.0 9.0 6.0 9.0 8.0 3.0 6.0 0.0 10.0 3.0 6.0 1.0 8.0 3.0 10.0 4.0 8.0 10.0 5.0 4.0 
2.0 4.0 8.0 -428.0 8.0 2.0 9.0 6.0 1.0 10.0 7.0 7.0 5.0 2.0 6.0 9.0 9.0 10.0 3.0 8.0 5.0 2.0 7.0 8.0 10.0 6.0 8.0 3.0 0.0 7.0 2.0 3.0 10.0 3.0 6.0 7.0 9.0 3.0 2.0 2.0 1.0 9.0 3.0 0.0 4.0 10.0 8.0 1.0 5.0 0.0 8.0 6.0 6.0 4.0 1.0 5.0 0.0 7.0 1.0 10.0 10.0 6.0 2.0 3.0 7.0 9.0 2.0 6.0 9.0 3.0 7.0 6.0 0.0 0.0 2.0 9.0 9.0 5.0 0.0 5.0 7.0 0.0 3.0 10.0 
8.0 3.0 3.0 8.0 -374.0 10.0 2.0 0.0 10.0 8.0 4.0 0.0 10.0 0.0 5.0 6.0 0.0 3.0 9.0 7.0 7.0 4.0 6.0 0.0 2.0 6.0 6.0 9.0 5.0 1.0 3.0 10.0 6.0 7.0 5.0 2.0 6.0 8.0 2.0 2.0 6.0 5.0 1.0 5.0 1.0 3.0 2.0 8.0 2.0 2.0 3.0 3.0 1.0 6.0 5.0 8.0 1.0 1.0 6.0 7.0 4.0 3.0 6.0 5.0 8.0 2.0 7.0 1.0 9.0 3.0 0.0 2.0 3.0 8.0 2.0 0.0 8.0 7.0 8.0 2.0 7.0 0.0 2.0 8.0 
5.0 3.0 9.0 2.0 10.0 -396.0 4.0 7.0 9.0 4.0 4.0 10.0 6.0 1.0 9.0 8.0 1.0 3.0 7.0 7.0 6.0 2.0 2.0 9.0 10.0 6.0 0.0 3.0 0.0 1.0 8.0 8.0 4.0 3.0 8.0 3.0 4.0 2.0 5.0 5.0 4.0 5.0 6.0 0.0 3.0 5.0 2.0 4.0 4.0 4.0 2.0 5.0 5.0 7.0 2.0 8.0 10.0 0.0 1.0 3.0 4.0 8.0 7.0 9.0 10.0 2.0 8.0 4.0 3.0 1.0 1.0 6.0 5.0 3.0 7.0 4.0 7.0 4.0 7.0 4.0 9.0 2.0 2.0 1.0 
4.0 6.0 5.0 9.0 2.0 4.0 -435.0 6.0 3.0 3.0 4.0 4.0 5.0 10.0 10.0 1.0 8.0 1.0 9.0 9.0 1.0 7.0 0.0 8.0 10.0 9.0 0.0 0.0 3.0 7.0 9.0 9.0 3.0 8.0 3.0 0.0 4.0 3.0 3.0 3.0 10.0 3.0 4.0 4.0 9.0 8.0 10.0 6.0 0.0 5.0 1.0 6.0 8.0 5.0 8.0 10.0 2.0 7.0 10.0 3.0 1.0 2.0 10.0 2.0 8.0 2.0 7.0 2.0 1.0 6.0 6.0 10.0 4.0 5.0 6.0 0.0 10.0 4.0 6.0 3.0 9.0 6.0 10.0 3.0 
0.0 2.0 8.0 6.0 0.0 7.0 6.0 -441.0 5.0 0.0 8.0 8.0 2.0 10.0 2.0 5.0 3.0 9.0 4.0 7.0 5.0 1.0 8.0 8.0 8.0 1.0 6.0 8.0 10.0 3.0 8.0 0.0 9.0 6.0 10.0 4.0 10.0 1.0 4.0 5.0 10.0 5.0 5.0 0.0 9.0 10.0 6.0 3.0 8.0 1.0 10.0 1.0 3.0 8.0 4.0 4.0 8.0 1.0 1.0 7.0 10.0 7.0 7.0 0.0 6.0 10.0 8.0 9.0 0.0 6.0 9.0 7.0 6.0 6.0 5.0 5.0 2.0 0.0 7.0 5.0 6.0 1.0 5.0 3.0 
8.0 3.0 2.0 1.0 10.0 9.0 3.0 5.0 -370.0 5.0 8.0 2.0 1.0 4.0 9.0 2.0 0.0 4.0 5.0 1.0 3.0 7.0 7.0 3.0 0.0 6.0 6.0 6.0 9.0 4.0 3.0 1.0 10.0 6.0 4.0 2.0 6.0 10.0 0.0 8.0 1.0 5.0 3.0 4.0 10.0 4.0 6.0 0.0 0.0 2.0 7.0 1.0 6.0 7.0 5.0 1.0 0.0 5.0 7.0 4.0 6.0 0.0 4.0 6.0 5.0 7.0 3.0 6.0 3.0 3.0 9.0 7.0 2.0 5.0 1.0 2.0 1.0 10.0 10.0 2.0 0.0 8.0 0.0 9.0 
7.0 7.0 5.0 10.0 8.0 4.0 3.0 0.0 5.0 -431.0 8.0 3.0 6.0 7.0 3.0 8.0 8.0 8.0 5.0 0.0 2.0 4.0 7.0 3.0 3.0 1.0 8.0 2.0 0.0 10.0 6.0 5.0 3.0 10.0 3.0 10.0 0.0 9.0 10.0 5.0 10.0 7.0 8.0 7.0 2.0 2.0 4.0 2.0 3.0 10.0 9.0 9.0 9.0 1.0 8.0 3.0 3.0 4.0 7.0 9.0 4.0 2.0 5.0 4.0 8.0 2.0 7.0 10.0 5.0 8.0 3.0 4.0 7.0 5.0 1.0 10.0 3.0 5.0 5.0 0.0 7.0 1.0 1.0 1.0 
2.0 2.0 7.0 7.0 4.0 4.0 4.0 8.0 8.0 8.0 -395.0 5.0 5.0 2.0 4.0 10.0 9.0 1.0 3.0 2.0 4.0 1.0 7.0 2.0 10.0 4.0 4.0 9.0 8.0 8.0 0.0 1.0 0.0 9.0 7.0 3.0 3.0 10.0 1.0 1.0 7.0 6.0 9.0 8.0 4.0 3.0 2.0 1.0 9.0 9.0 1.0 1.0 1.0 10.0 5.0 0.0 8.0 6.0 6.0 10.0 1.0 10.0 5.0 3.0 0.0 5.0 7.0 2.0 7.0 3.0 3.0 2.0 4.0 7.0 2.0 6.0 4.0 1.0 4.0 0.0 8.0 0.0 9.0 9.0 
3.0 8.0 10.0 7.0 0.0 10.0 4.0 8.0 2.0 3.0 5.0 -428.0 2.0 10.0 3.0 0.0 2.0 7.0 8.0 9.0 3.0 9.0 5.0 9.0 5.0 6.0 2.0 3.0 6.0 0.0 10.0 8.0 6.0 2.0 4.0 8.0 6.0 2.0 3.0 8.0 9.0 5.0 5.0 1.0 1.0 8.0 5.0 2.0 5.0 1.0 6.0 1.0 6.0 10.0 10.0 8.0 6.0 5.0 6.0 8.0 4.0 0.0 8.0 7.0 4.0 7.0 8.0 4.0 4.0 2.0 9.0 2.0 10.0 3.0 6.0 4.0 7.0 4.0 6.0 4.0 5.0 1.0 2.0 3.0 
4.0 8.0 5.0 5.0 10.0 6.0 5.0 2.0 1.0 6.0 5.0 2.0 -425.0 0.0 6.0 9.0 5.0 6.0 0.0 8.0 9.0 6.0 9.0 9.0 1.0 2.0 2.0 2.0 0.0 4.0 2.0 5.0 4.0 3.0 2.0 7.0 0.0 3.0 9.0 7.0 3.0 10.0 5.0 6.0 3.0 2.0 5.0 9.0 9.0 8.0 2.0 10.0 5.0 10.0 6.0 9.0 5.0 8.0 10.0 1.0 3.0 2.0 2.0 7.0 10.0 3.0 8.0 7.0 10.0 1.0 0.0 4.0 1.0 7.0 5.0 7.0 0.0 5.0 9.0 10.0 7.0 0.0 5.0 7.0 
0.0 10.0 6.0 2.0 0.0 1.0 10.0 10.0 4.0 7.0 2.0 10.0 0.0 -450.0 6.0 5.0 4.0 6.0 6.0 7.0 10.0 5.0 6.0 6.0 5.0 3.0 10.0 1.0 10.0 9.0 6.0 10.0 3.0 6.0 8.0 1.0 1.0 8.0 8.0 6.0 10.0 6.0 6.0 2.0 5.0 3.0 3.0 6.0 9.0 7.0 7.0 5.0 10.0 6.0 10.0 4.0 2.0 0.0 10.0 1.0 4.0 2.0 9.0 1.0 6.0 5.0 6.0 10.0 10.0 2.0 1.0 10.0 0.0 3.0 3.0 8.0 10.0 8.0 1.0 4.0 4.0 3.0 9.0 1.0 
1.0 5.0 1.0 6.0 5.0 9.0 10.0 2.0 9.0 3.0 4.0 3.0 6.0 6.0 -439.0 10.0 0.0 5.0 9.0 8.0 4.0 10.0 9.0 2.0 6.0 8.0 10.0 0.0 8.0 4.0 6.0 10.0 1.0 2.0 0.0 10.0 7.0 1.0 2.0 6.0 5.0 6.0 10.0 5.0 10.0 10.0 8.0 2.0 3.0 6.0 4.0 10.0 10.0 7.0 9.0 7.0 2.0 6.0 4.0 6.0 2.0 10.0 7.0 5.0 9.0 5.0 6.0 2.0 4.0 1.0 7.0 0.0 9.0 2.0 2.0 3.0 1.0 1.0 2.0 3.0 7.0 8.0 1.0 4.0 
5.0 1.0 0.0 9.0 6.0 8.0 1.0 5.0 2.0 8.0 10.0 0.0 9.0 5.0 10.0 -409.0 10.0 10.0 10.0 0.0 10.0 0.0 4.0 8.0 1.0 3.0 6.0 3.0 7.0 0.0 9.0 7.0 8.0 6.0 3.0 3.0 9.0 7.0 5.0 10.0 1.0 3.0 5.0 7.0 8.0 5.0 1.0 7.0 1.0 6.0 4.0 6.0 0.0 3.0 8.0 1.0 1.0 7.0 1.0 6.0 5.0 8.0 2.0 10.0 2.0 2.0 3.0 3.0 4.0 1.0 0.0 7.0 1.0 0.0 8.0 8.0 9.0 6.0 2.0 3.0 6.0 9.0 1.0 10.0 
9.0 1.0 4.0 9.0 0.0 1.0 8.0 3.0 0.0 8.0 9.0 2.0 5.0 4.0 0.0 10.0 -406.0 5.0 8.0 2.0 2.0 5.0 6.0 8.0 9.0 2.0 5.0 10.0 0.0 3.0 1.0 1.0 6.0 0.0 8.0 2.0 4.0 4.0 6.0 6.0 7.0 3.0 4.0 7.0 3.0 3.0 9.0 4.0 2.0 7.0 9.0 6.0 7.0 0.0 8.0 8.0 8.0 7.0 7.0 2.0 1.0 3.0 6.0 2.0 1.0 9.0 6.0 10.0 5.0 8.0 3.0 3.0 3.0 7.0 4.0 3.0 5.0 9.0 3.0 9.0 2.0 5.0 4.0 8.0 
5.0 4.0 2.0 10.0 3.0 3.0 1.0 9.0 4.0 8.0 1.0 7.0 6.0 6.0 5.0 10.0 5.0 -414.0 5.0 5.0 9.0 0.0 5.0 6.0 2.0 3.0 8.0 0.0 9.0 1.0 4.0 3.0 5.0 7.0 2.0 4.0 8.0 10.0 5.0 7.0 7.0 2.0 10.0 4.0 6.0 0.0 7.0 1.0 7.0 3.0 3.0 10.0 2.0 3.0 2.0 5.0 10.0 2.0 7.0 9.0 2.0 2.0 8.0 0.0 0.0 6.0 0.0 7.0 2.0 10.0 2.0 10.0 6.0 1.0 9.0 8.0 5.0 8.0 5.0 9.0 5.0 3.0 0.0 9.0 
0.0 6.0 7.0 3.0 9.0 7.0 9.0 4.0 5.0 5.0 3.0 8.0 0.0 6.0 9.0 10.0 8.0 5.0 -420.0 6.0 1.0 3.0 5.0 5.0 8.0 4.0 9.0 2.0 5.0 6.0 0.0 2.0 2.0 10.0 10.0 10.0 8.0 5.0 2.0 4.0 9.0 8.0 3.0 3.0 3.0 10.0 6.0 2.0 0.0 2.0 6.0 6.0 4.0 9.0 7.0 3.0 6.0 1.0 8.0 2.0 2.0 1.0 10.0 5.0 3.0 7.0 4.0 8.0 7.0 3.0 5.0 8.0 1.0 8.0 3.0 2.0 5.0 2.0 10.0 0.0 5.0 7.0 3.0 2.0 
0.0 1.0 1.0 8.0 7.0 7.0 9.0 7.0 1.0 0.0 2.0 9.0 8.0 7.0 8.0 0.0 2.0 5.0 6.0 -385.0 3.0 8.0 9.0 4.0 4.0 5.0 10.0 2.0 2.0 5.0 9.0 3.0 10.0 5.0 1.0 2.0 3.0 7.0 10.0 5.0 9.0 4.0 1.0 3.0 0.0 10.0 10.0 5.0 10.0 2.0 7.0 10.0 9.0 0.0 3.0 4.0 4.0 2.0 3.0 1.0 6.0 6.0 6.0 1.0 3.0 0.0 6.0 1.0 2.0 6.0 1.0 3.0 4.0 5.0 1.0 8.0 5.0 5.0 10.0 0.0 3.0 8.0 1.0 2.0 
3.0 8.0 6.0 5.0 7.0 6.0 1.0 5.0 3.0 2.0 4.0 3.0 9.0 10.0 4.0 10.0 2.0 9.0 1.0 3.0 -444.0 3.0 0.0 6.0 4.0 7.0 10.0 5.0 3.0 8.0 4.0 0.0 2.0 10.0 6.0 9.0 7.0 1.0 3.0 5.0 7.0 4.0 10.0 3.0 10.0 10.0 5.0 8.0 2.0 3.0 7.0 6.0 3.0 5.0 8.0 10.0 0.0 5.0 8.0 3.0 9.0 8.0 4.0 6.0 8.0 0.0 7.0 7.0 0.0 6.0 4.0 1.0 0.0 4.0 7.0 7.0 5.0 0.0 8.0 10.0 9.0 10.0 5.0 8.0 
8.0 8.0 6.0 2.0 4.0 2.0 7.0 1.0 7.0 4.0 1.0 9.0 6.0 5.0 10.0 0.0 5.0 0.0 3.0 8.0 3.0 -409.0 8.0 4.0 5.0 9.0 3.0 3.0 2.0 9.0 2.0 6.0 3.0 6.0 4.0 8.0 2.0 0.0 10.0 3.0 5.0 3.0 5.0 5.0 4.0 3.0 6.0 0.0 2.0 7.0 8.0 9.0 3.0 1.0 6.0 10.0 1.0 10.0 5.0 5.0 3.0 9.0 9.0 5.0 7.0 9.0 6.0 6.0 3.0 5.0 5.0 5.0 0.0 2.0 5.0 4.0 6.0 8.0 1.0 10.0 2.0 2.0 8.0 5.0 
7.0 8.0 8.0 7.0 6.0 2.0 0.0 8.0 7.0 7.0 7.0 5.0 9.0 6.0 9.0 4.0 6.0 5.0 5.0 9.0 0.0 8.0 -416.0 5.0 10.0 9.0 9.0 2.0 2.0 8.0 1.0 2.0 3.0 4.0 8.0 1.0 5.0 9.0 2.0 7.0 6.0 9.0 7.0 2.0 1.0 4.0 7.0 5.0 1.0 2.0 6.0 8.0 1.0 2.0 10.0 2.0 1.0 5.0 7.0 7.0 5.0 8.0 4.0 1.0 10.0 10.0 3.0 0.0 6.0 9.0 5.0 4.0 3.0 6.0 0.0 3.0 0.0 6.0 4.0 3.0 4.0 3.0 0.0 6.0 
5.0 3.0 10.0 8.0 0.0 9.0 8.0 8.0 3.0 3.0 2.0 9.0 9.0 6.0 2.0 8.0 8.0 6.0 5.0 4.0 6.0 4.0 5.0 -416.0 5.0 4.0 1.0 4.0 8.0 5.0 9.0 3.0 0.0 9.0 8.0 3.0 3.0 6.0 8.0 5.0 0.0 1.0 2.0 7.0 10.0 1.0 10.0 10.0 5.0 1.0 9.0 1.0 8.0 0.0 10.0 8.0 9.0 4.0 1.0 4.0 1.0 6.0 5.0 4.0 2.0 3.0 9.0 7.0 3.0 0.0 2.0 10.0 1.0 2.0 2.0 5.0 5.0 2.0 8.0 1.0 0.0 10.0 7.0 8.0 
4.0 3.0 7.0 10.0 2.0 10.0 10.0 8.0 0.0 3.0 10.0 5.0 1.0 5.0 6.0 1.0 9.0 2.0 8.0 4.0 4.0 5.0 10.0 5.0 -422.0 8.0 5.0 3.0 7.0 2.0 10.0 7.0 10.0 10.0 6.0 4.0 0.0 0.0 9.0 0.0 3.0 0.0 7.0 9.0 0.0 1.0 3.0 9.0 5.0 5.0 5.0 9.0 1.0 2.0 10.0 1.0 6.0 3.0 5.0 8.0 7.0 4.0 4.0 5.0 8.0 3.0 8.0 4.0 8.0 9.0 2.0 2.0 0.0 7.0 5.0 10.0 0.0 6.0 0.0 3.0 10.0 0.0 10.0 2.0 
3.0 4.0 1.0 6.0 6.0 6.0 9.0 1.0 6.0 1.0 4.0 6.0 2.0 3.0 8.0 3.0 2.0 3.0 4.0 5.0 7.0 9.0 9.0 4.0 8.0 -380.0 2.0 1.0 6.0 3.0 1.0 9.0 3.0 3.0 10.0 7.0 5.0 9.0 8.0 3.0 4.0 10.0 8.0 7.0 3.0 3.0 3.0 4.0 10.0 3.0 3.0 7.0 10.0 2.0 9.0 9.0 5.0 3.0 6.0 5.0 3.0 8.0 6.0 2.0 4.0 4.0 9.0 2.0 3.0 0.0 0.0 0.0 3.0 4.0 10.0 2.0 4.0 0.0 0.0 1.0 1.0 1.0 2.0 7.0 
9.0 7.0 9.0 8.0 6.0 0.0 0.0 6.0 6.0 8.0 4.0 2.0 2.0 10.0 10.0 6.0 5.0 8.0 9.0 10.0 10.0 3.0 9.0 1.0 5.0 2.0 -472.0 3.0 3.0 1.0 4.0 0.0 2.0 4.0 9.0 4.0 2.0 8.0 10.0 7.0 8.0 3.0 3.0 9.0 6.0 0.0 10.0 7.0 6.0 1.0 1.0 9.0 10.0 10.0 5.0 1.0 9.0 1.0 9.0 10.0 6.0 10.0 0.0 2.0 8.0 10.0 3.0 6.0 6.0 10.0 1.0 10.0 2.0 8.0 0.0 8.0 9.0 1.0 10.0 8.0 9.0 7.0 7.0 1.0 
0.0 9.0 8.0 3.0 9.0 3.0 0.0 8.0 6.0 2.0 9.0 3.0 2.0 1.0 0.0 3.0 10.0 0.0 2.0 2.0 5.0 3.0 2.0 4.0 3.0 1.0 3.0 -381.0 9.0 7.0 4.0 3.0 10.0 3.0 3.0 1.0 4.0 0.0 7.0 4.0 1.0 6.0 7.0 6.0 0.0 4.0 10.0 4.0 10.0 2.0 10.0 9.0 8.0 5.0 8.0 2.0 4.0 1.0 9.0 6.0 0.0 10.0 6.0 2.0 2.0 8.0 6.0 4.0 6.0 4.0 1.0 1.0 5.0 4.0 10.0 2.0 5.0 3.0 2.0 3.0 9.0 8.0 3.0 9.0 
0.0 7.0 0.0 0.0 5.0 0.0 3.0 10.0 9.0 0.0 8.0 6.0 0.0 10.0 8.0 7.0 0.0 9.0 5.0 2.0 3.0 2.0 2.0 8.0 7.0 6.0 3.0 9.0 -394.0 4.0 7.0 10.0 1.0 5.0 3.0 6.0 1.0 5.0 0.0 2.0 10.0 1.0 5.0 0.0 4.0 3.0 2.0 10.0 6.0 6.0 0.0 7.0 7.0 6.0 2.0 5.0 5.0 9.0 8.0 2.0 2.0 1.0 10.0 7.0 3.0 4.0 0.0 10.0 7.0 7.0 3.0 1.0 2.0 10.0 7.0 3.0 4.0 9.0 9.0 0.0 10.0 6.0 3.0 5.0 
5.0 4.0 6.0 7.0 1.0 1.0 7.0 3.0 4.0 10.0 8.0 0.0 4.0 9.0 4.0 0.0 3.0 1.0 6.0 5.0 8.0 9.0 8.0 5.0 2.0 3.0 1.0 7.0 4.0 -361.0 4.0 5.0 7.0 5.0 3.0 6.0 7.0 0.0 4.0 3.0 2.0 10.0 10.0 2.0 3.0 0.0 3.0 1.0 0.0 9.0 0.0 9.0 9.0 4.0 8.0 6.0 7.0 8.0 0.0 5.0 1.0 3.0 3.0 7.0 1.0 8.0 0.0 0.0 0.0 8.0 10.0 1.0 1.0 0.0 7.0 1.0 2.0 3.0 2.0 1.0 8.0 7.0 10.0 2.0 
4.0 4.0 6.0 2.0 3.0 8.0 9.0 8.0 3.0 6.0 0.0 10.0 2.0 6.0 6.0 9.0 1.0 4.0 0.0 9.0 4.0 2.0 1.0 9.0 10.0 1.0 4.0 4.0 7.0 4.0 -410.0 5.0 1.0 7.0 9.0 10.0 8.0 6.0 8.0 9.0 7.0 0.0 10.0 9.0 6.0 6.0 8.0 9.0 1.0 3.0 7.0 5.0 2.0 1.0 3.0 10.0 8.0 0.0 8.0 4.0 6.0 1.0 5.0 6.0 2.0 4.0 1.0 2.0 8.0 10.0 9.0 0.0 1.0 1.0 0.0 2.0 2.0 5.0 2.0 6.0 4.0 7.0 9.0 1.0 
10.0 6.0 0.0 3.0 10.0 8.0 9.0 0.0 1.0 5.0 1.0 8.0 5.0 10.0 10.0 7.0 1.0 3.0 2.0 3.0 0.0 6.0 2.0 3.0 7.0 9.0 0.0 3.0 10.0 5.0 5.0 -405.0 7.0 10.0 10.0 1.0 0.0 4.0 6.0 9.0 1.0 2.0 0.0 4.0 3.0 9.0 0.0 1.0 9.0 9.0 4.0 0.0 2.0 10.0 4.0 2.0 6.0 4.0 3.0 3.0 7.0 7.0 7.0 2.0 2.0 10.0 7.0 9.0 4.0 9.0 0.0 5.0 10.0 0.0 0.0 4.0 3.0 9.0 5.0 6.0 6.0 9.0 5.0 4.0 
3.0 5.0 0.0 10.0 6.0 4.0 3.0 9.0 10.0 3.0 0.0 6.0 4.0 3.0 1.0 8.0 6.0 5.0 2.0 10.0 2.0 3.0 3.0 0.0 10.0 3.0 2.0 10.0 1.0 7.0 1.0 7.0 -405.0 2.0 2.0 5.0 4.0 9.0 6.0 2.0 9.0 10.0 0.0 9.0 8.0 3.0 8.0 4.0 4.0 0.0 5.0 6.0 3.0 1.0 9.0 6.0 6.0 0.0 3.0 9.0 10.0 5.0 6.0 9.0 2.0 9.0 9.0 5.0 3.0 6.0 2.0 5.0 6.0 3.0 2.0 1.0 8.0 1.0 10.0 3.0 3.0 7.0 2.0 8.0 
1.0 7.0 5.0 3.0 7.0 3.0 8.0 6.0 6.0 10.0 9.0 2.0 3.0 6.0 2.0 6.0 0.0 7.0 10.0 5.0 10.0 6.0 4.0 9.0 10.0 3.0 4.0 3.0 5.0 5.0 7.0 10.0 2.0 -437.0 8.0 1.0 6.0 8.0 0.0 8.0 1.0 10.0 4.0 5.0 6.0 9.0 4.0 4.0 6.0 8.0 1.0 2.0 8.0 4.0 8.0 4.0 1.0 6.0 7.0 0.0 0.0 0.0 10.0 9.0 9.0 0.0 1.0 8.0 6.0 6.0 8.0 1.0 4.0 1.0 7.0 2.0 3.0 10.0 9.0 10.0 3.0 1.0 8.0 8.0 
10.0 10.0 6.0 6.0 5.0 8.0 3.0 10.0 4.0 3.0 7.0 4.0 2.0 8.0 0.0 3.0 8.0 2.0 10.0 1.0 6.0 4.0 8.0 8.0 6.0 10.0 9.0 3.0 3.0 3.0 9.0 10.0 2.0 8.0 -435.0 0.0 3.0 2.0 8.0 4.0 2.0 3.0 10.0 1.0 9.0 4.0 3.0 7.0 1.0 8.0 5.0 2.0 3.0 6.0 2.0 5.0 7.0 2.0 0.0 9.0 3.0 5.0 10.0 6.0 3.0 6.0 6.0 9.0 10.0 0.0 9.0 3.0 7.0 3.0 2.0 1.0 9.0 4.0 4.0 4.0 8.0 2.0 6.0 10.0 
9.0 2.0 3.0 7.0 2.0 3.0 0.0 4.0 2.0 10.0 3.0 8.0 7.0 1.0 10.0 3.0 2.0 4.0 10.0 2.0 9.0 8.0 1.0 3.0 4.0 7.0 4.0 1.0 6.0 6.0 10.0 1.0 5.0 1.0 0.0 -386.0 8.0 6.0 3.0 5.0 5.0 1.0 10.0 0.0 1.0 7.0 1.0 7.0 8.0 1.0 7.0 1.0 1.0 5.0 7.0 7.0 5.0 1.0 1.0 1.0 7.0 5.0 10.0 1.0 7.0 4.0 3.0 2.0 9.0 3.0 8.0 8.0 0.0 3.0 4.0 10.0 10.0 9.0 9.0 2.0 6.0 0.0 3.0 6.0 
6.0 2.0 9.0 9.0 6.0 4.0 4.0 10.0 6.0 0.0 3.0 6.0 0.0 1.0 7.0 9.0 4.0 8.0 8.0 3.0 7.0 2.0 5.0 3.0 0.0 5.0 2.0 4.0 1.0 7.0 8.0 0.0 4.0 6.0 3.0 8.0 -410.0 5.0 10.0 9.0 5.0 4.0 7.0 2.0 10.0 4.0 10.0 7.0 7.0 3.0 2.0 1.0 8.0 4.0 4.0 9.0 6.0 0.0 4.0 7.0 10.0 9.0 2.0 1.0 8.0 7.0 2.0 0.0 4.0 5.0 9.0 2.0 9.0 6.0 6.0 0.0 1.0 5.0 2.0 9.0 3.0 1.0 8.0 3.0 
5.0 1.0 1.0 3.0 8.0 2.0 3.0 1.0 10.0 9.0 10.0 2.0 3.0 8.0 1.0 7.0 4.0 10.0 5.0 7.0 1.0 0.0 9.0 6.0 0.0 9.0 8.0 0.0 5.0 0.0 6.0 4.0 9.0 8.0 2.0 6.0 5.0 -398.0 2.0 2.0 2.0 4.0 4.0 5.0 8.0 10.0 3.0 6.0 8.0 1.0 4.0 10.0 8.0 5.0 7.0 4.0 7.0 5.0 8.0 1.0 10.0 6.0 6.0 2.0 10.0 5.0 0.0 5.0 10.0 2.0 5.0 7.0 5.0 1.0 0.0 0.0 10.0 1.0 5.0 8.0 2.0 0.0 0.0 6.0 
7.0 2.0 9.0 2.0 2.0 5.0 3.0 4.0 0.0 10.0 1.0 3.0 9.0 8.0 2.0 5.0 6.0 5.0 2.0 10.0 3.0 10.0 2.0 8.0 9.0 8.0 10.0 7.0 0.0 4.0 8.0 6.0 6.0 0.0 8.0 3.0 10.0 2.0 -388.0 1.0 4.0 8.0 4.0 10.0 1.0 5.0 6.0 10.0 10.0 4.0 7.0 0.0 5.0 0.0 6.0 9.0 7.0 3.0 5.0 0.0 9.0 3.0 3.0 4.0 8.0 4.0 4.0 5.0 2.0 7.0 3.0 1.0 2.0 0.0 0.0 0.0 4.0 1.0 8.0 1.0 3.0 7.0 2.0 3.0 
1.0 6.0 0.0 2.0 2.0 5.0 3.0 5.0 8.0 5.0 1.0 8.0 7.0 6.0 6.0 10.0 6.0 7.0 4.0 5.0 5.0 3.0 7.0 5.0 0.0 3.0 7.0 4.0 2.0 3.0 9.0 9.0 2.0 8.0 4.0 5.0 9.0 2.0 1.0 -405.0 7.0 3.0 9.0 8.0 8.0 3.0 1.0 8.0 9.0 3.0 6.0 9.0 6.0 7.0 1.0 9.0 0.0 4.0 0.0 8.0 1.0 1.0 8.0 2.0 4.0 5.0 7.0 2.0 9.0 5.0 2.0 10.0 6.0 4.0 5.0 1.0 5.0 10.0 5.0 0.0 6.0 10.0 1.0 2.0 
2.0 9.0 2.0 1.0 6.0 4.0 10.0 10.0 1.0 10.0 7.0 9.0 3.0 10.0 5.0 1.0 7.0 7.0 9.0 9.0 7.0 5.0 6.0 0.0 3.0 4.0 8.0 1.0 10.0 2.0 7.0 1.0 9.0 1.0 2.0 5.0 5.0 2.0 4.0 7.0 -397.0 0.0 8.0 10.0 3.0 9.0 9.0 3.0 7.0 0.0 2.0 3.0 4.0 10.0 8.0 1.0 5.0 2.0 4.0 6.0 0.0 8.0 4.0 1.0 5.0 5.0 2.0 4.0 2.0 6.0 2.0 8.0 2.0 5.0 0.0 6.0 9.0 3.0 6.0 7.0 0.0 4.0 1.0 2.0 
10.0 6.0 3.0 9.0 5.0 5.0 3.0 5.0 5.0 7.0 6.0 5.0 10.0 6.0 6.0 3.0 3.0 2.0 8.0 4.0 4.0 3.0 9.0 1.0 0.0 10.0 3.0 6.0 1.0 10.0 0.0 2.0 10.0 10.0 3.0 1.0 4.0 4.0 8.0 3.0 0.0 -412.0 5.0 5.0 10.0 6.0 4.0 3.0 0.0 7.0 5.0 6.0 10.0 10.0 1.0 5.0 6.0 5.0 2.0 3.0 7.0 3.0 1.0 6.0 0.0 3.0 1.0 6.0 9.0 7.0 5.0 10.0 6.0 9.0 7.0 0.0 2.0 10.0 1.0 2.0 6.0 5.0 7.0 3.0 
10.0 1.0 9.0 3.0 1.0 6.0 4.0 5.0 3.0 8.0 9.0 5.0 5.0 6.0 10.0 5.0 4.0 10.0 3.0 1.0 10.0 5.0 7.0 2.0 7.0 8.0 3.0 7.0 5.0 10.0 10.0 0.0 0.0 4.0 10.0 10.0 7.0 4.0 4.0 9.0 8.0 5.0 -441.0 4.0 6.0 8.0 9.0 0.0 5.0 2.0 9.0 8.0 8.0 1.0 5.0 8.0 0.0 7.0 8.0 0.0 5.0 5.0 8.0 4.0 4.0 1.0 7.0 8.0 1.0 9.0 7.0 2.0 5.0 10.0 1.0 3.0 7.0 3.0 0.0 0.0 6.0 1.0 8.0 5.0 
1.0 2.0 7.0 0.0 5.0 0.0 4.0 0.0 4.0 7.0 8.0 1.0 6.0 2.0 5.0 7.0 7.0 4.0 3.0 3.0 3.0 5.0 2.0 7.0 9.0 7.0 9.0 6.0 0.0 2.0 9.0 4.0 9.0 5.0 1.0 0.0 2.0 5.0 10.0 8.0 10.0 5.0 4.0 -387.0 7.0 9.0 3.0 1.0 3.0 5.0 7.0 0.0 10.0 9.0 10.0 0.0 3.0 3.0 2.0 6.0 8.0 9.0 3.0 0.0 0.0 1.0 4.0 2.0 5.0 4.0 9.0 6.0 3.0 3.0 5.0 9.0 0.0 2.0 10.0 5.0 3.0 10.0 6.0 4.0 
5.0 1.0 7.0 4.0 1.0 3.0 9.0 9.0 10.0 2.0 4.0 1.0 3.0 5.0 10.0 8.0 3.0 6.0 3.0 0.0 10.0 4.0 1.0 10.0 0.0 3.0 6.0 0.0 4.0 3.0 6.0 3.0 8.0 6.0 9.0 1.0 10.0 8.0 1.0 8.0 3.0 10.0 6.0 7.0 -422.0 0.0 10.0 3.0 10.0 6.0 6.0 7.0 3.0 10.0 6.0 7.0 4.0 9.0 8.0 3.0 8.0 3.0 7.0 5.0 7.0 2.0 6.0 9.0 2.0 8.0 1.0 1.0 1.0 0.0 3.0 10.0 5.0 5.0 8.0 7.0 0.0 3.0 4.0 4.0 
8.0 1.0 4.0 10.0 3.0 5.0 8.0 10.0 4.0 2.0 3.0 8.0 2.0 3.0 10.0 5.0 3.0 0.0 10.0 10.0 10.0 3.0 4.0 1.0 1.0 3.0 0.0 4.0 3.0 0.0 6.0 9.0 3.0 9.0 4.0 7.0 4.0 10.0 5.0 3.0 9.0 6.0 8.0 9.0 0.0 -404.0 6.0 8.0 3.0 5.0 2.0 4.0 7.0 2.0 3.0 1.0 8.0 3.0 5.0 10.0 9.0 1.0 6.0 3.0 10.0 1.0 9.0 1.0 3.0 0.0 6.0 10.0 4.0 2.0 2.0 10.0 2.0 2.0 2.0 2.0 5.0 0.0 8.0 9.0 
8.0 6.0 4.0 8.0 2.0 2.0 10.0 6.0 6.0 4.0 2.0 5.0 5.0 3.0 8.0 1.0 9.0 7.0 6.0 10.0 5.0 6.0 7.0 10.0 3.0 3.0 10.0 10.0 2.0 3.0 8.0 0.0 8.0 4.0 3.0 1.0 10.0 3.0 6.0 1.0 9.0 4.0 9.0 3.0 10.0 6.0 -439.0 8.0 3.0 9.0 1.0 10.0 1.0 10.0 1.0 4.0 8.0 1.0 6.0 0.0 9.0 3.0 6.0 8.0 8.0 10.0 6.0 4.0 0.0 7.0 6.0 10.0 8.0 1.0 6.0 2.0 6.0 4.0 0.0 4.0 7.0 5.0 0.0 1.0 
1.0 10.0 3.0 1.0 8.0 4.0 6.0 3.0 0.0 2.0 1.0 2.0 9.0 6.0 2.0 7.0 4.0 1.0 2.0 5.0 8.0 0.0 5.0 10.0 9.0 4.0 7.0 4.0 10.0 1.0 9.0 1.0 4.0 4.0 7.0 7.0 7.0 6.0 10.0 8.0 3.0 3.0 0.0 1.0 3.0 8.0 8.0 -427.0 5.0 10.0 2.0 9.0 9.0 6.0 8.0 7.0 6.0 0.0 9.0 1.0 8.0 7.0 10.0 7.0 5.0 6.0 8.0 1.0 7.0 10.0 8.0 2.0 6.0 2.0 1.0 0.0 9.0 2.0 5.0 8.0 3.0 3.0 8.0 5.0 
5.0 10.0 6.0 5.0 2.0 4.0 0.0 8.0 0.0 3.0 9.0 5.0 9.0 9.0 3.0 1.0 2.0 7.0 0.0 10.0 2.0 2.0 1.0 5.0 5.0 10.0 6.0 10.0 6.0 0.0 1.0 9.0 4.0 6.0 1.0 8.0 7.0 8.0 10.0 9.0 7.0 0.0 5.0 3.0 10.0 3.0 3.0 5.0 -378.0 1.0 1.0 3.0 0.0 2.0 10.0 8.0 10.0 1.0 6.0 9.0 0.0 1.0 1.0 6.0 9.0 6.0 0.0 5.0 5.0 5.0 8.0 4.0 3.0 3.0 2.0 5.0 3.0 1.0 2.0 5.0 2.0 1.0 1.0 5.0 
0.0 2.0 1.0 0.0 2.0 4.0 5.0 1.0 2.0 10.0 9.0 1.0 8.0 7.0 6.0 6.0 7.0 3.0 2.0 2.0 3.0 7.0 2.0 1.0 5.0 3.0 1.0 2.0 6.0 9.0 3.0 9.0 0.0 8.0 8.0 1.0 3.0 1.0 4.0 3.0 0.0 7.0 2.0 5.0 6.0 5.0 9.0 10.0 1.0 -387.0 0.0 4.0 8.0 8.0 7.0 3.0 3.0 5.0 5.0 6.0 3.0 7.0 0.0 7.0 10.0 2.0 8.0 10.0 10.0 8.0 4.0 5.0 7.0 9.0 2.0 10.0 7.0 0.0 7.0 6.0 5.0 1.0 7.0 1.0 
7.0 8.0 4.0 8.0 3.0 2.0 1.0 10.0 7.0 9.0 1.0 6.0 2.0 7.0 4.0 4.0 9.0 3.0 6.0 7.0 7.0 8.0 6.0 9.0 5.0 3.0 1.0 10.0 0.0 0.0 7.0 4.0 5.0 1.0 5.0 7.0 2.0 4.0 7.0 6.0 2.0 5.0 9.0 7.0 6.0 2.0 1.0 2.0 1.0 0.0 -429.0 1.0 2.0 10.0 5.0 6.0 6.0 5.0 8.0 4.0 9.0 7.0 9.0 4.0 2.0 1.0 2.0 9.0 2.0 4.0 1.0 10.0 5.0 7.0 8.0 7.0 10.0 9.0 6.0 4.0 6.0 6.0 9.0 5.0 
3.0 1.0 7.0 6.0 3.0 5.0 6.0 1.0 1.0 9.0 1.0 1.0 10.0 5.0 10.0 6.0 6.0 10.0 6.0 10.0 6.0 9.0 8.0 1.0 9.0 7.0 9.0 9.0 7.0 9.0 5.0 0.0 6.0 2.0 2.0 1.0 1.0 10.0 0.0 9.0 3.0 6.0 8.0 0.0 7.0 4.0 10.0 9.0 3.0 4.0 1.0 -455.0 4.0 2.0 3.0 3.0 7.0 4.0 7.0 8.0 10.0 7.0 3.0 10.0 0.0 9.0 8.0 6.0 9.0 8.0 1.0 5.0 9.0 8.0 2.0 0.0 9.0 4.0 6.0 10.0 6.0 4.0 4.0 7.0 
5.0 9.0 5.0 6.0 1.0 5.0 8.0 3.0 6.0 9.0 1.0 6.0 5.0 10.0 10.0 0.0 7.0 2.0 4.0 9.0 3.0 3.0 1.0 8.0 1.0 10.0 10.0 8.0 7.0 9.0 2.0 2.0 3.0 8.0 3.0 1.0 8.0 8.0 5.0 6.0 4.0 10.0 8.0 10.0 3.0 7.0 1.0 9.0 0.0 8.0 2.0 4.0 -460.0 4.0 5.0 10.0 1.0 9.0 5.0 10.0 0.0 3.0 7.0 2.0 10.0 6.0 6.0 3.0 9.0 0.0 8.0 7.0 9.0 1.0 4.0 8.0 10.0 4.0 0.0 9.0 7.0 10.0 9.0 1.0 
4.0 4.0 0.0 4.0 6.0 7.0 5.0 8.0 7.0 1.0 10.0 10.0 10.0 6.0 7.0 3.0 0.0 3.0 9.0 0.0 5.0 1.0 2.0 0.0 2.0 2.0 10.0 5.0 6.0 4.0 1.0 10.0 1.0 4.0 6.0 5.0 4.0 5.0 0.0 7.0 10.0 10.0 1.0 9.0 10.0 2.0 10.0 6.0 2.0 8.0 10.0 2.0 4.0 -403.0 2.0 8.0 8.0 4.0 3.0 2.0 0.0 3.0 10.0 6.0 2.0 0.0 9.0 2.0 1.0 4.0 4.0 3.0 8.0 1.0 7.0 5.0 9.0 6.0 8.0 8.0 5.0 1.0 0.0 6.0 
4.0 5.0 5.0 1.0 5.0 2.0 8.0 4.0 5.0 8.0 5.0 10.0 6.0 10.0 9.0 8.0 8.0 2.0 7.0 3.0 8.0 6.0 10.0 10.0 10.0 9.0 5.0 8.0 2.0 8.0 3.0 4.0 9.0 8.0 2.0 7.0 4.0 7.0 6.0 1.0 8.0 1.0 5.0 10.0 6.0 3.0 1.0 8.0 10.0 7.0 5.0 3.0 5.0 2.0 -459.0 7.0 6.0 0.0 2.0 10.0 4.0 5.0 6.0 9.0 9.0 1.0 3.0 6.0 7.0 0.0 2.0 6.0 7.0 8.0 10.0 0.0 6.0 5.0 8.0 1.0 6.0 5.0 4.0 0.0 
1.0 9.0 9.0 5.0 8.0 8.0 10.0 4.0 1.0 3.0 0.0 8.0 9.0 4.0 7.0 1.0 8.0 5.0 3.0 4.0 10.0 10.0 2.0 8.0 1.0 9.0 1.0 2.0 5.0 6.0 10.0 2.0 6.0 4.0 5.0 7.0 9.0 4.0 9.0 9.0 1.0 5.0 8.0 0.0 7.0 1.0 4.0 7.0 8.0 3.0 6.0 3.0 10.0 8.0 7.0 -463.0 7.0 7.0 8.0 4.0 9.0 6.0 6.0 10.0 4.0 6.0 5.0 6.0 9.0 10.0 3.0 1.0 6.0 6.0 6.0 7.0 4.0 4.0 5.0 7.0 3.0 8.0 1.0 1.0 
8.0 8.0 0.0 0.0 1.0 10.0 2.0 8.0 0.0 3.0 8.0 6.0 5.0 2.0 2.0 1.0 8.0 10.0 6.0 4.0 0.0 1.0 1.0 9.0 6.0 5.0 9.0 4.0 5.0 7.0 8.0 6.0 6.0 1.0 7.0 5.0 6.0 7.0 7.0 0.0 5.0 6.0 0.0 3.0 4.0 8.0 8.0 6.0 10.0 3.0 6.0 7.0 1.0 8.0 6.0 7.0 -429.0 4.0 8.0 2.0 2.0 6.0 5.0 9.0 3.0 5.0 5.0 9.0 3.0 6.0 8.0 2.0 7.0 9.0 6.0 7.0 5.0 5.0 5.0 10.0 1.0 5.0 9.0 3.0 
3.0 10.0 5.0 7.0 1.0 0.0 7.0 1.0 5.0 4.0 6.0 5.0 8.0 0.0 6.0 7.0 7.0 2.0 1.0 2.0 5.0 10.0 5.0 4.0 3.0 3.0 1.0 1.0 9.0 8.0 0.0 4.0 0.0 6.0 2.0 1.0 0.0 5.0 3.0 4.0 2.0 5.0 7.0 3.0 9.0 3.0 1.0 0.0 1.0 5.0 5.0 4.0 9.0 4.0 0.0 7.0 4.0 -366.0 1.0 8.0 2.0 9.0 5.0 4.0 4.0 3.0 4.0 2.0 4.0 5.0 6.0 8.0 10.0 10.0 2.0 0.0 9.0 9.0 7.0 10.0 2.0 6.0 5.0 1.0 
1.0 1.0 3.0 1.0 6.0 1.0 10.0 1.0 7.0 7.0 6.0 6.0 10.0 10.0 4.0 1.0 7.0 7.0 8.0 3.0 8.0 5.0 7.0 1.0 5.0 6.0 9.0 9.0 8.0 0.0 8.0 3.0 3.0 7.0 0.0 1.0 4.0 8.0 5.0 0.0 4.0 2.0 8.0 2.0 8.0 5.0 6.0 9.0 6.0 5.0 8.0 7.0 5.0 3.0 2.0 8.0 8.0 1.0 -407.0 10.0 0.0 4.0 6.0 6.0 6.0 2.0 8.0 3.0 7.0 2.0 1.0 6.0 2.0 0.0 3.0 10.0 9.0 6.0 3.0 6.0 3.0 0.0 10.0 0.0 
0.0 2.0 8.0 10.0 7.0 3.0 3.0 7.0 4.0 9.0 10.0 8.0 1.0 1.0 6.0 6.0 2.0 9.0 2.0 1.0 3.0 5.0 7.0 4.0 8.0 5.0 10.0 6.0 2.0 5.0 4.0 3.0 9.0 0.0 9.0 1.0 7.0 1.0 0.0 8.0 6.0 3.0 0.0 6.0 3.0 10.0 0.0 1.0 9.0 6.0 4.0 8.0 10.0 2.0 10.0 4.0 2.0 8.0 10.0 -424.0 2.0 8.0 8.0 8.0 1.0 8.0 4.0 8.0 6.0 3.0 7.0 9.0 8.0 8.0 0.0 5.0 1.0 5.0 7.0 7.0 4.0 3.0 1.0 5.0 
5.0 6.0 5.0 10.0 4.0 4.0 1.0 10.0 6.0 4.0 1.0 4.0 3.0 4.0 2.0 5.0 1.0 2.0 2.0 6.0 9.0 3.0 5.0 1.0 7.0 3.0 6.0 0.0 2.0 1.0 6.0 7.0 10.0 0.0 3.0 7.0 10.0 10.0 9.0 1.0 0.0 7.0 5.0 8.0 8.0 9.0 9.0 8.0 0.0 3.0 9.0 10.0 0.0 0.0 4.0 9.0 2.0 2.0 0.0 2.0 -426.0 3.0 4.0 4.0 10.0 0.0 1.0 9.0 9.0 9.0 7.0 5.0 10.0 3.0 9.0 9.0 4.0 8.0 7.0 10.0 7.0 4.0 5.0 9.0 
4.0 10.0 1.0 6.0 3.0 8.0 2.0 7.0 0.0 2.0 10.0 0.0 2.0 2.0 10.0 8.0 3.0 2.0 1.0 6.0 8.0 9.0 8.0 6.0 4.0 8.0 10.0 10.0 1.0 3.0 1.0 7.0 5.0 0.0 5.0 5.0 9.0 6.0 3.0 1.0 8.0 3.0 5.0 9.0 3.0 1.0 3.0 7.0 1.0 7.0 7.0 7.0 3.0 3.0 5.0 6.0 6.0 9.0 4.0 8.0 3.0 -397.0 4.0 9.0 1.0 8.0 6.0 2.0 5.0 1.0 7.0 3.0 7.0 1.0 2.0 0.0 5.0 1.0 9.0 1.0 2.0 8.0 5.0 6.0 
2.0 4.0 2.0 2.0 6.0 7.0 10.0 7.0 4.0 5.0 5.0 8.0 2.0 9.0 7.0 2.0 6.0 8.0 10.0 6.0 4.0 9.0 4.0 5.0 4.0 6.0 0.0 6.0 10.0 3.0 5.0 7.0 6.0 10.0 10.0 10.0 2.0 6.0 3.0 8.0 4.0 1.0 8.0 3.0 7.0 6.0 6.0 10.0 1.0 0.0 9.0 3.0 7.0 10.0 6.0 6.0 5.0 5.0 6.0 8.0 4.0 4.0 -433.0 3.0 0.0 1.0 1.0 0.0 0.0 10.0 3.0 2.0 9.0 8.0 1.0 1.0 4.0 9.0 0.0 8.0 6.0 5.0 6.0 7.0 
1.0 8.0 0.0 3.0 5.0 9.0 2.0 0.0 6.0 4.0 3.0 7.0 7.0 1.0 5.0 10.0 2.0 0.0 5.0 1.0 6.0 5.0 1.0 4.0 5.0 2.0 2.0 2.0 7.0 7.0 6.0 2.0 9.0 9.0 6.0 1.0 1.0 2.0 4.0 2.0 1.0 6.0 4.0 0.0 5.0 3.0 8.0 7.0 6.0 7.0 4.0 10.0 2.0 6.0 9.0 10.0 9.0 4.0 6.0 8.0 4.0 9.0 3.0 -387.0 10.0 3.0 6.0 2.0 0.0 0.0 1.0 9.0 8.0 4.0 4.0 5.0 10.0 8.0 7.0 0.0 5.0 5.0 0.0 7.0 
2.0 9.0 3.0 7.0 8.0 10.0 8.0 6.0 5.0 8.0 0.0 4.0 10.0 6.0 9.0 2.0 1.0 0.0 3.0 3.0 8.0 7.0 10.0 2.0 8.0 4.0 8.0 2.0 3.0 1.0 2.0 2.0 2.0 9.0 3.0 7.0 8.0 10.0 8.0 4.0 5.0 0.0 4.0 0.0 7.0 10.0 8.0 5.0 9.0 10.0 2.0 0.0 10.0 2.0 9.0 4.0 3.0 4.0 6.0 1.0 10.0 1.0 0.0 10.0 -431.0 1.0 2.0 1.0 1.0 9.0 6.0 10.0 8.0 7.0 1.0 5.0 5.0 10.0 6.0 8.0 3.0 7.0 2.0 7.0 
5.0 7.0 9.0 9.0 2.0 2.0 2.0 10.0 7.0 2.0 5.0 7.0 3.0 5.0 5.0 2.0 9.0 6.0 7.0 0.0 0.0 9.0 10.0 3.0 3.0 4.0 10.0 8.0 4.0 8.0 4.0 10.0 9.0 0.0 6.0 4.0 7.0 5.0 4.0 5.0 5.0 3.0 1.0 1.0 2.0 1.0 10.0 6.0 6.0 2.0 1.0 9.0 6.0 0.0 1.0 6.0 5.0 3.0 2.0 8.0 0.0 8.0 1.0 3.0 1.0 -380.0 3.0 7.0 10.0 9.0 2.0 3.0 1.0 3.0 0.0 2.0 8.0 1.0 4.0 2.0 1.0 8.0 1.0 7.0 
4.0 9.0 6.0 2.0 7.0 8.0 7.0 8.0 3.0 7.0 7.0 8.0 8.0 6.0 6.0 3.0 6.0 0.0 4.0 6.0 7.0 6.0 3.0 9.0 8.0 9.0 3.0 6.0 0.0 0.0 1.0 7.0 9.0 1.0 6.0 3.0 2.0 0.0 4.0 7.0 2.0 1.0 7.0 4.0 6.0 9.0 6.0 8.0 0.0 8.0 2.0 8.0 6.0 9.0 3.0 5.0 5.0 4.0 8.0 4.0 1.0 6.0 1.0 6.0 2.0 3.0 -404.0 5.0 0.0 1.0 3.0 10.0 4.0 2.0 1.0 0.0 4.0 9.0 7.0 9.0 6.0 6.0 4.0 3.0 
6.0 7.0 9.0 6.0 1.0 4.0 2.0 9.0 6.0 10.0 2.0 4.0 7.0 10.0 2.0 3.0 10.0 7.0 8.0 1.0 7.0 6.0 0.0 7.0 4.0 2.0 6.0 4.0 10.0 0.0 2.0 9.0 5.0 8.0 9.0 2.0 0.0 5.0 5.0 2.0 4.0 6.0 8.0 2.0 9.0 1.0 4.0 1.0 5.0 10.0 9.0 6.0 3.0 2.0 6.0 6.0 9.0 2.0 3.0 8.0 9.0 2.0 0.0 2.0 1.0 7.0 5.0 -428.0 5.0 5.0 3.0 5.0 8.0 9.0 0.0 4.0 10.0 3.0 7.0 10.0 0.0 9.0 3.0 10.0 
8.0 3.0 8.0 9.0 9.0 3.0 1.0 0.0 3.0 5.0 7.0 4.0 10.0 10.0 4.0 4.0 5.0 2.0 7.0 2.0 0.0 3.0 6.0 3.0 8.0 3.0 6.0 6.0 7.0 0.0 8.0 4.0 3.0 6.0 10.0 9.0 4.0 10.0 2.0 9.0 2.0 9.0 1.0 5.0 2.0 3.0 0.0 7.0 5.0 10.0 2.0 9.0 9.0 1.0 7.0 9.0 3.0 4.0 7.0 6.0 9.0 5.0 0.0 0.0 1.0 10.0 0.0 5.0 -414.0 3.0 4.0 0.0 9.0 1.0 9.0 1.0 7.0 1.0 10.0 5.0 7.0 2.0 4.0 9.0 
7.0 7.0 3.0 3.0 3.0 1.0 6.0 6.0 3.0 8.0 3.0 2.0 1.0 2.0 1.0 1.0 8.0 10.0 3.0 6.0 6.0 5.0 9.0 0.0 9.0 0.0 10.0 4.0 7.0 8.0 10.0 9.0 6.0 6.0 0.0 3.0 5.0 2.0 7.0 5.0 6.0 7.0 9.0 4.0 8.0 0.0 7.0 10.0 5.0 8.0 4.0 8.0 0.0 4.0 0.0 10.0 6.0 5.0 2.0 3.0 9.0 1.0 10.0 0.0 9.0 9.0 1.0 5.0 3.0 -408.0 3.0 7.0 8.0 1.0 1.0 7.0 8.0 2.0 0.0 3.0 3.0 10.0 4.0 3.0 
10.0 0.0 6.0 7.0 0.0 1.0 6.0 9.0 9.0 3.0 3.0 9.0 0.0 1.0 7.0 0.0 3.0 2.0 5.0 1.0 4.0 5.0 5.0 2.0 2.0 0.0 1.0 1.0 3.0 10.0 9.0 0.0 2.0 8.0 9.0 8.0 9.0 5.0 3.0 2.0 2.0 5.0 7.0 9.0 1.0 6.0 6.0 8.0 8.0 4.0 1.0 1.0 8.0 4.0 2.0 3.0 8.0 6.0 1.0 7.0 7.0 7.0 3.0 1.0 6.0 2.0 3.0 3.0 4.0 3.0 -358.0 1.0 1.0 0.0 5.0 8.0 5.0 10.0 0.0 4.0 7.0 1.0 1.0 9.0 
6.0 0.0 0.0 6.0 2.0 6.0 10.0 7.0 7.0 4.0 2.0 2.0 4.0 10.0 0.0 7.0 3.0 10.0 8.0 3.0 1.0 5.0 4.0 10.0 2.0 0.0 10.0 1.0 1.0 1.0 0.0 5.0 5.0 1.0 3.0 8.0 2.0 7.0 1.0 10.0 8.0 10.0 2.0 6.0 1.0 10.0 10.0 2.0 4.0 5.0 10.0 5.0 7.0 3.0 6.0 1.0 2.0 8.0 6.0 9.0 5.0 3.0 2.0 9.0 10.0 3.0 10.0 5.0 0.0 7.0 1.0 -392.0 8.0 6.0 5.0 3.0 3.0 0.0 5.0 1.0 7.0 4.0 6.0 0.0 
7.0 0.0 10.0 0.0 3.0 5.0 4.0 6.0 2.0 7.0 4.0 10.0 1.0 0.0 9.0 1.0 3.0 6.0 1.0 4.0 0.0 0.0 3.0 1.0 0.0 3.0 2.0 5.0 2.0 1.0 1.0 10.0 6.0 4.0 7.0 0.0 9.0 5.0 2.0 6.0 2.0 6.0 5.0 3.0 1.0 4.0 8.0 6.0 3.0 7.0 5.0 9.0 9.0 8.0 7.0 6.0 7.0 10.0 2.0 8.0 10.0 7.0 9.0 8.0 8.0 1.0 4.0 8.0 9.0 8.0 1.0 8.0 -396.0 4.0 6.0 2.0 0.0 2.0 5.0 7.0 9.0 1.0 4.0 9.0 
7.0 0.0 3.0 0.0 8.0 3.0 5.0 6.0 5.0 5.0 7.0 3.0 7.0 3.0 2.0 0.0 7.0 1.0 8.0 5.0 4.0 2.0 6.0 2.0 7.0 4.0 8.0 4.0 10.0 0.0 1.0 0.0 3.0 1.0 3.0 3.0 6.0 1.0 0.0 4.0 5.0 9.0 10.0 3.0 0.0 2.0 1.0 2.0 3.0 9.0 7.0 8.0 1.0 1.0 8.0 6.0 9.0 10.0 0.0 8.0 3.0 1.0 8.0 4.0 7.0 3.0 2.0 9.0 1.0 1.0 0.0 6.0 4.0 -368.0 10.0 10.0 6.0 4.0 5.0 9.0 5.0 0.0 7.0 7.0 
5.0 0.0 6.0 2.0 2.0 7.0 6.0 5.0 1.0 1.0 2.0 6.0 5.0 3.0 2.0 8.0 4.0 9.0 3.0 1.0 7.0 5.0 0.0 2.0 5.0 10.0 0.0 10.0 7.0 7.0 0.0 0.0 2.0 7.0 2.0 4.0 6.0 0.0 0.0 5.0 0.0 7.0 1.0 5.0 3.0 2.0 6.0 1.0 2.0 2.0 8.0 2.0 4.0 7.0 10.0 6.0 6.0 2.0 3.0 0.0 9.0 2.0 1.0 4.0 1.0 0.0 1.0 0.0 9.0 1.0 5.0 5.0 6.0 10.0 -337.0 9.0 8.0 4.0 0.0 8.0 7.0 0.0 8.0 5.0 
5.0 0.0 1.0 9.0 0.0 4.0 0.0 5.0 2.0 10.0 6.0 4.0 7.0 8.0 3.0 8.0 3.0 8.0 2.0 8.0 7.0 4.0 3.0 5.0 10.0 2.0 8.0 2.0 3.0 1.0 2.0 4.0 1.0 2.0 1.0 10.0 0.0 0.0 0.0 1.0 6.0 0.0 3.0 9.0 10.0 10.0 2.0 0.0 5.0 10.0 7.0 0.0 8.0 5.0 0.0 7.0 7.0 0.0 10.0 5.0 9.0 0.0 1.0 5.0 5.0 2.0 0.0 4.0 1.0 7.0 8.0 3.0 2.0 10.0 9.0 -378.0 8.0 8.0 4.0 7.0 2.0 7.0 9.0 4.0 
1.0 0.0 8.0 9.0 8.0 7.0 10.0 2.0 1.0 3.0 4.0 7.0 0.0 10.0 1.0 9.0 5.0 5.0 5.0 5.0 5.0 6.0 0.0 5.0 0.0 4.0 9.0 5.0 4.0 2.0 2.0 3.0 8.0 3.0 9.0 10.0 1.0 10.0 4.0 5.0 9.0 2.0 7.0 0.0 5.0 2.0 6.0 9.0 3.0 7.0 10.0 9.0 10.0 9.0 6.0 4.0 5.0 9.0 9.0 1.0 4.0 5.0 4.0 10.0 5.0 8.0 4.0 10.0 7.0 8.0 5.0 3.0 0.0 6.0 8.0 8.0 -449.0 6.0 4.0 3.0 4.0 10.0 0.0 10.0 
2.0 0.0 3.0 5.0 7.0 4.0 4.0 0.0 10.0 5.0 1.0 4.0 5.0 8.0 1.0 6.0 9.0 8.0 2.0 5.0 0.0 8.0 6.0 2.0 6.0 0.0 1.0 3.0 9.0 3.0 5.0 9.0 1.0 10.0 4.0 9.0 5.0 1.0 1.0 10.0 3.0 10.0 3.0 2.0 5.0 2.0 4.0 2.0 1.0 0.0 9.0 4.0 4.0 6.0 5.0 4.0 5.0 9.0 6.0 5.0 8.0 1.0 9.0 8.0 10.0 1.0 9.0 3.0 1.0 2.0 10.0 0.0 2.0 4.0 4.0 8.0 6.0 -381.0 2.0 7.0 8.0 7.0 0.0 0.0 
7.0 0.0 10.0 0.0 8.0 7.0 6.0 7.0 10.0 5.0 4.0 6.0 9.0 1.0 2.0 2.0 3.0 5.0 10.0 10.0 8.0 1.0 4.0 8.0 0.0 0.0 10.0 2.0 9.0 2.0 2.0 5.0 10.0 9.0 4.0 9.0 2.0 5.0 8.0 5.0 6.0 1.0 0.0 10.0 8.0 2.0 0.0 5.0 2.0 7.0 6.0 6.0 0.0 8.0 8.0 5.0 5.0 7.0 3.0 7.0 7.0 9.0 0.0 7.0 6.0 4.0 7.0 7.0 10.0 0.0 0.0 5.0 5.0 5.0 0.0 4.0 4.0 2.0 -431.0 7.0 10.0 10.0 6.0 5.0 
1.0 0.0 4.0 5.0 2.0 4.0 3.0 5.0 2.0 0.0 0.0 4.0 10.0 4.0 3.0 3.0 9.0 9.0 0.0 0.0 10.0 10.0 3.0 1.0 3.0 1.0 8.0 3.0 0.0 1.0 6.0 6.0 3.0 10.0 4.0 2.0 9.0 8.0 1.0 0.0 7.0 2.0 0.0 5.0 7.0 2.0 4.0 8.0 5.0 6.0 4.0 10.0 9.0 8.0 1.0 7.0 10.0 10.0 6.0 7.0 10.0 1.0 8.0 0.0 8.0 2.0 9.0 10.0 5.0 3.0 4.0 1.0 7.0 9.0 8.0 7.0 3.0 7.0 7.0 -391.0 1.0 1.0 2.0 3.0 
3.0 0.0 8.0 7.0 7.0 9.0 9.0 6.0 0.0 7.0 8.0 5.0 7.0 4.0 7.0 6.0 2.0 5.0 5.0 3.0 9.0 2.0 4.0 0.0 10.0 1.0 9.0 9.0 10.0 8.0 4.0 6.0 3.0 3.0 8.0 6.0 3.0 2.0 3.0 6.0 0.0 6.0 6.0 3.0 0.0 5.0 7.0 3.0 2.0 5.0 6.0 6.0 7.0 5.0 6.0 3.0 1.0 2.0 3.0 4.0 7.0 2.0 6.0 5.0 3.0 1.0 6.0 0.0 7.0 3.0 7.0 7.0 9.0 5.0 7.0 2.0 4.0 8.0 10.0 1.0 -410.0 8.0 4.0 4.0 
0.0 0.0 10.0 0.0 0.0 2.0 6.0 1.0 8.0 1.0 0.0 1.0 0.0 3.0 8.0 9.0 5.0 3.0 7.0 8.0 10.0 2.0 3.0 10.0 0.0 1.0 7.0 8.0 6.0 7.0 7.0 9.0 7.0 1.0 2.0 0.0 1.0 0.0 7.0 10.0 4.0 5.0 1.0 10.0 3.0 0.0 5.0 3.0 1.0 1.0 6.0 4.0 10.0 1.0 5.0 8.0 5.0 6.0 0.0 3.0 4.0 8.0 5.0 5.0 7.0 8.0 6.0 9.0 2.0 10.0 1.0 4.0 1.0 0.0 0.0 7.0 10.0 7.0 10.0 1.0 8.0 -371.0 2.0 5.0 
0.0 0.0 5.0 3.0 2.0 2.0 10.0 5.0 0.0 1.0 9.0 2.0 5.0 9.0 1.0 1.0 4.0 0.0 3.0 1.0 5.0 8.0 0.0 7.0 10.0 2.0 7.0 3.0 3.0 10.0 9.0 5.0 2.0 8.0 6.0 3.0 8.0 0.0 2.0 1.0 1.0 7.0 8.0 6.0 4.0 8.0 0.0 8.0 1.0 7.0 9.0 4.0 9.0 0.0 4.0 1.0 9.0 5.0 10.0 1.0 5.0 5.0 6.0 0.0 2.0 1.0 4.0 3.0 4.0 4.0 1.0 6.0 4.0 7.0 8.0 9.0 0.0 0.0 6.0 2.0 4.0 2.0 -355.0 8.0 
0.0 0.0 4.0 10.0 8.0 1.0 3.0 3.0 9.0 1.0 9.0 3.0 7.0 1.0 4.0 10.0 8.0 9.0 2.0 2.0 8.0 5.0 6.0 8.0 2.0 7.0 1.0 9.0 5.0 2.0 1.0 4.0 8.0 8.0 10.0 6.0 3.0 6.0 3.0 2.0 2.0 3.0 5.0 4.0 4.0 9.0 1.0 5.0 5.0 1.0 5.0 7.0 1.0 6.0 0.0 1.0 3.0 1.0 0.0 5.0 9.0 6.0 7.0 7.0 7.0 7.0 3.0 10.0 9.0 3.0 9.0 0.0 9.0 7.0 5.0 4.0 10.0 0.0 5.0 3.0 4.0 5.0 8.0 -403.0 

